c This is a CNF SAT formula in the DIMACS CNF format,
c produced with the bc2cnf translator by Tommi Junttila;
c see http://users.ics.aalto.fi/tjunttil/circuits/index.html
c Cin <-> 679
c B31 <-> 680
c B30 <-> 681
c B29 <-> 682
c B28 <-> 683
c B27 <-> 684
c B26 <-> 685
c B25 <-> 686
c B24 <-> 687
c B23 <-> 688
c B22 <-> 689
c B21 <-> 690
c B20 <-> 691
c B19 <-> 692
c B18 <-> 693
c B17 <-> 694
c B16 <-> 695
c B15 <-> 696
c B14 <-> 697
c B13 <-> 698
c B12 <-> 699
c B11 <-> 700
c B10 <-> 701
c B9 <-> 702
c B8 <-> 703
c B7 <-> 704
c B6 <-> 705
c B5 <-> 706
c B4 <-> 707
c B3 <-> 708
c B2 <-> 709
c B1 <-> 710
c B0 <-> 711
c A31 <-> 712
c A30 <-> 713
c A29 <-> 714
c A28 <-> 715
c A27 <-> 716
c A26 <-> 717
c A25 <-> 718
c A24 <-> 719
c A23 <-> 720
c A22 <-> 721
c A21 <-> 722
c A20 <-> 723
c A19 <-> 724
c A18 <-> 725
c A17 <-> 726
c A16 <-> 727
c A15 <-> 728
c A14 <-> 729
c A13 <-> 730
c A12 <-> 731
c A11 <-> 732
c A10 <-> 733
c A9 <-> 734
c A8 <-> 735
c A7 <-> 736
c A6 <-> 737
c A5 <-> 738
c A4 <-> 739
c A3 <-> 740
c A2 <-> 741
c A1 <-> 742
c A0 <-> 743
p cnf 743 2030
-1 -2 0
-1 -3 0
1 3 2 0
-2 -6 0
-2 633 0
2 -633 6 0
-3 4 0
-3 -220 0
3 220 -4 0
-4 0
-5 -9 0
-5 -236 0
5 236 9 0
-6 -7 0
-6 -8 0
6 8 7 0
-7 -9 0
-7 -10 0
7 10 9 0
-8 -9 0
-8 -233 0
8 233 9 0
-9 -10 0
-9 -233 0
9 233 10 0
-10 -14 0
-10 -18 0
10 18 14 0
-11 -12 0
-11 -13 0
11 13 12 0
-12 -14 0
-12 -19 0
12 19 14 0
-13 -14 0
-13 -15 0
13 15 14 0
-14 -15 0
-14 -19 0
14 19 15 0
-15 -16 0
-15 -17 0
15 17 16 0
-16 -18 0
-16 681 0
16 -681 18 0
-17 -18 0
-17 713 0
17 -713 18 0
-18 681 0
-18 713 0
18 -713 -681 0
-19 -23 0
-19 -27 0
19 27 23 0
-20 -21 0
-20 -22 0
20 22 21 0
-21 -23 0
-21 -28 0
21 28 23 0
-22 -23 0
-22 -24 0
22 24 23 0
-23 -24 0
-23 -28 0
23 28 24 0
-24 -25 0
-24 -26 0
24 26 25 0
-25 -27 0
-25 682 0
25 -682 27 0
-26 -27 0
-26 714 0
26 -714 27 0
-27 682 0
-27 714 0
27 -714 -682 0
-28 -32 0
-28 -36 0
28 36 32 0
-29 -30 0
-29 -31 0
29 31 30 0
-30 -32 0
-30 -37 0
30 37 32 0
-31 -32 0
-31 -33 0
31 33 32 0
-32 -33 0
-32 -37 0
32 37 33 0
-33 -34 0
-33 -35 0
33 35 34 0
-34 -36 0
-34 683 0
34 -683 36 0
-35 -36 0
-35 715 0
35 -715 36 0
-36 683 0
-36 715 0
36 -715 -683 0
-37 -41 0
-37 -295 0
37 295 41 0
-38 -39 0
-38 -40 0
38 40 39 0
-39 -41 0
-39 -42 0
39 42 41 0
-40 -41 0
-40 -292 0
40 292 41 0
-41 -42 0
-41 -292 0
41 292 42 0
-42 -46 0
-42 -50 0
42 50 46 0
-43 -44 0
-43 -45 0
43 45 44 0
-44 -46 0
-44 -51 0
44 51 46 0
-45 -46 0
-45 -47 0
45 47 46 0
-46 -47 0
-46 -51 0
46 51 47 0
-47 -48 0
-47 -49 0
47 49 48 0
-48 -50 0
-48 685 0
48 -685 50 0
-49 -50 0
-49 717 0
49 -717 50 0
-50 685 0
-50 717 0
50 -717 -685 0
-51 -55 0
-51 -59 0
51 59 55 0
-52 -53 0
-52 -54 0
52 54 53 0
-53 -55 0
-53 -60 0
53 60 55 0
-54 -55 0
-54 -56 0
54 56 55 0
-55 -56 0
-55 -60 0
55 60 56 0
-56 -57 0
-56 -58 0
56 58 57 0
-57 -59 0
-57 686 0
57 -686 59 0
-58 -59 0
-58 718 0
58 -718 59 0
-59 686 0
-59 718 0
59 -718 -686 0
-60 -64 0
-60 -68 0
60 68 64 0
-61 -62 0
-61 -63 0
61 63 62 0
-62 -64 0
-62 -69 0
62 69 64 0
-63 -64 0
-63 -65 0
63 65 64 0
-64 -65 0
-64 -69 0
64 69 65 0
-65 -66 0
-65 -67 0
65 67 66 0
-66 -68 0
-66 687 0
66 -687 68 0
-67 -68 0
-67 719 0
67 -719 68 0
-68 687 0
-68 719 0
68 -719 -687 0
-69 -73 0
-69 -354 0
69 354 73 0
-70 -71 0
-70 -72 0
70 72 71 0
-71 -73 0
-71 -74 0
71 74 73 0
-72 -73 0
-72 -351 0
72 351 73 0
-73 -74 0
-73 -351 0
73 351 74 0
-74 -78 0
-74 -82 0
74 82 78 0
-75 -76 0
-75 -77 0
75 77 76 0
-76 -78 0
-76 -83 0
76 83 78 0
-77 -78 0
-77 -79 0
77 79 78 0
-78 -79 0
-78 -83 0
78 83 79 0
-79 -80 0
-79 -81 0
79 81 80 0
-80 -82 0
-80 689 0
80 -689 82 0
-81 -82 0
-81 721 0
81 -721 82 0
-82 689 0
-82 721 0
82 -721 -689 0
-83 -87 0
-83 -91 0
83 91 87 0
-84 -85 0
-84 -86 0
84 86 85 0
-85 -87 0
-85 -92 0
85 92 87 0
-86 -87 0
-86 -88 0
86 88 87 0
-87 -88 0
-87 -92 0
87 92 88 0
-88 -89 0
-88 -90 0
88 90 89 0
-89 -91 0
-89 690 0
89 -690 91 0
-90 -91 0
-90 722 0
90 -722 91 0
-91 690 0
-91 722 0
91 -722 -690 0
-92 -96 0
-92 -100 0
92 100 96 0
-93 -94 0
-93 -95 0
93 95 94 0
-94 -96 0
-94 -101 0
94 101 96 0
-95 -96 0
-95 -97 0
95 97 96 0
-96 -97 0
-96 -101 0
96 101 97 0
-97 -98 0
-97 -99 0
97 99 98 0
-98 -100 0
-98 691 0
98 -691 100 0
-99 -100 0
-99 723 0
99 -723 100 0
-100 691 0
-100 723 0
100 -723 -691 0
-101 -105 0
-101 -413 0
101 413 105 0
-102 -103 0
-102 -104 0
102 104 103 0
-103 -105 0
-103 -106 0
103 106 105 0
-104 -105 0
-104 -410 0
104 410 105 0
-105 -106 0
-105 -410 0
105 410 106 0
-106 -110 0
-106 -114 0
106 114 110 0
-107 -108 0
-107 -109 0
107 109 108 0
-108 -110 0
-108 -115 0
108 115 110 0
-109 -110 0
-109 -111 0
109 111 110 0
-110 -111 0
-110 -115 0
110 115 111 0
-111 -112 0
-111 -113 0
111 113 112 0
-112 -114 0
-112 693 0
112 -693 114 0
-113 -114 0
-113 725 0
113 -725 114 0
-114 693 0
-114 725 0
114 -725 -693 0
-115 -119 0
-115 -123 0
115 123 119 0
-116 -117 0
-116 -118 0
116 118 117 0
-117 -119 0
-117 -124 0
117 124 119 0
-118 -119 0
-118 -120 0
118 120 119 0
-119 -120 0
-119 -124 0
119 124 120 0
-120 -121 0
-120 -122 0
120 122 121 0
-121 -123 0
-121 694 0
121 -694 123 0
-122 -123 0
-122 726 0
122 -726 123 0
-123 694 0
-123 726 0
123 -726 -694 0
-124 -128 0
-124 -132 0
124 132 128 0
-125 -126 0
-125 -127 0
125 127 126 0
-126 -128 0
-126 -133 0
126 133 128 0
-127 -128 0
-127 -129 0
127 129 128 0
-128 -129 0
-128 -133 0
128 133 129 0
-129 -130 0
-129 -131 0
129 131 130 0
-130 -132 0
-130 695 0
130 -695 132 0
-131 -132 0
-131 727 0
131 -727 132 0
-132 695 0
-132 727 0
132 -727 -695 0
-133 -137 0
-133 -472 0
133 472 137 0
-134 -135 0
-134 -136 0
134 136 135 0
-135 -137 0
-135 -138 0
135 138 137 0
-136 -137 0
-136 -469 0
136 469 137 0
-137 -138 0
-137 -469 0
137 469 138 0
-138 -142 0
-138 -146 0
138 146 142 0
-139 -140 0
-139 -141 0
139 141 140 0
-140 -142 0
-140 -147 0
140 147 142 0
-141 -142 0
-141 -143 0
141 143 142 0
-142 -143 0
-142 -147 0
142 147 143 0
-143 -144 0
-143 -145 0
143 145 144 0
-144 -146 0
-144 697 0
144 -697 146 0
-145 -146 0
-145 729 0
145 -729 146 0
-146 697 0
-146 729 0
146 -729 -697 0
-147 -151 0
-147 -155 0
147 155 151 0
-148 -149 0
-148 -150 0
148 150 149 0
-149 -151 0
-149 -156 0
149 156 151 0
-150 -151 0
-150 -152 0
150 152 151 0
-151 -152 0
-151 -156 0
151 156 152 0
-152 -153 0
-152 -154 0
152 154 153 0
-153 -155 0
-153 698 0
153 -698 155 0
-154 -155 0
-154 730 0
154 -730 155 0
-155 698 0
-155 730 0
155 -730 -698 0
-156 -160 0
-156 -164 0
156 164 160 0
-157 -158 0
-157 -159 0
157 159 158 0
-158 -160 0
-158 -165 0
158 165 160 0
-159 -160 0
-159 -161 0
159 161 160 0
-160 -161 0
-160 -165 0
160 165 161 0
-161 -162 0
-161 -163 0
161 163 162 0
-162 -164 0
-162 699 0
162 -699 164 0
-163 -164 0
-163 731 0
163 -731 164 0
-164 699 0
-164 731 0
164 -731 -699 0
-165 -169 0
-165 -531 0
165 531 169 0
-166 -167 0
-166 -168 0
166 168 167 0
-167 -169 0
-167 -170 0
167 170 169 0
-168 -169 0
-168 -528 0
168 528 169 0
-169 -170 0
-169 -528 0
169 528 170 0
-170 -174 0
-170 -178 0
170 178 174 0
-171 -172 0
-171 -173 0
171 173 172 0
-172 -174 0
-172 -179 0
172 179 174 0
-173 -174 0
-173 -175 0
173 175 174 0
-174 -175 0
-174 -179 0
174 179 175 0
-175 -176 0
-175 -177 0
175 177 176 0
-176 -178 0
-176 701 0
176 -701 178 0
-177 -178 0
-177 733 0
177 -733 178 0
-178 701 0
-178 733 0
178 -733 -701 0
-179 -183 0
-179 -187 0
179 187 183 0
-180 -181 0
-180 -182 0
180 182 181 0
-181 -183 0
-181 -188 0
181 188 183 0
-182 -183 0
-182 -184 0
182 184 183 0
-183 -184 0
-183 -188 0
183 188 184 0
-184 -185 0
-184 -186 0
184 186 185 0
-185 -187 0
-185 702 0
185 -702 187 0
-186 -187 0
-186 734 0
186 -734 187 0
-187 702 0
-187 734 0
187 -734 -702 0
-188 -192 0
-188 -196 0
188 196 192 0
-189 -190 0
-189 -191 0
189 191 190 0
-190 -192 0
-190 -197 0
190 197 192 0
-191 -192 0
-191 -193 0
191 193 192 0
-192 -193 0
-192 -197 0
192 197 193 0
-193 -194 0
-193 -195 0
193 195 194 0
-194 -196 0
-194 703 0
194 -703 196 0
-195 -196 0
-195 735 0
195 -735 196 0
-196 703 0
-196 735 0
196 -735 -703 0
-197 -201 0
-197 -590 0
197 590 201 0
-198 -199 0
-198 -200 0
198 200 199 0
-199 -201 0
-199 -202 0
199 202 201 0
-200 -201 0
-200 -587 0
200 587 201 0
-201 -202 0
-201 -587 0
201 587 202 0
-202 -206 0
-202 -607 0
202 607 206 0
-203 -204 0
-203 -205 0
203 205 204 0
-204 -206 0
-204 -207 0
204 207 206 0
-205 -206 0
-205 -604 0
205 604 206 0
-206 -207 0
-206 -604 0
206 604 207 0
-207 -211 0
-207 -624 0
207 624 211 0
-208 -209 0
-208 -210 0
208 210 209 0
-209 -211 0
-209 -212 0
209 212 211 0
-210 -211 0
-210 -621 0
210 621 211 0
-211 -212 0
-211 -621 0
211 621 212 0
-212 -216 0
-212 -642 0
212 642 216 0
-213 -214 0
-213 -215 0
213 215 214 0
-214 -216 0
-214 -643 0
214 643 216 0
-215 -216 0
-215 -639 0
215 639 216 0
-216 -639 0
-216 -643 0
216 643 639 0
-217 -218 0
-217 -219 0
217 219 218 0
-218 -223 0
-218 -276 0
218 276 223 0
-219 -228 0
-219 276 0
219 -276 228 0
-220 -221 0
-220 -222 0
220 222 221 0
-221 -224 0
-221 -276 0
221 276 224 0
-222 -229 0
-222 276 0
222 -276 229 0
-223 -227 0
-223 -236 0
223 236 227 0
-224 -225 0
-224 -226 0
224 226 225 0
-225 -227 0
-225 633 0
225 -633 227 0
-226 -227 0
-226 -233 0
226 233 227 0
-227 -233 0
-227 633 0
227 -633 233 0
-228 -232 0
-228 -236 0
228 236 232 0
-229 -230 0
-229 -231 0
229 231 230 0
-230 4 0
-230 -232 0
230 232 -4 0
-231 -232 0
-231 -233 0
231 233 232 0
-232 4 0
-232 -233 0
232 233 -4 0
-233 -234 0
-233 -235 0
233 235 234 0
-234 -236 0
-234 680 0
234 -680 236 0
-235 -236 0
-235 712 0
235 -712 236 0
-236 680 0
-236 712 0
236 -712 -680 0
-237 -238 0
-237 -239 0
237 239 238 0
-238 -241 0
-238 -276 0
238 276 241 0
-239 -246 0
-239 276 0
239 -276 246 0
-240 -18 0
-240 -244 0
240 244 18 0
-241 -242 0
-241 -243 0
241 243 242 0
-242 -244 0
-242 633 0
242 -633 244 0
-243 -15 0
-243 -244 0
243 244 15 0
-244 -15 0
-244 633 0
244 -633 15 0
-245 -18 0
-245 -249 0
245 249 18 0
-246 -247 0
-246 -248 0
246 248 247 0
-247 4 0
-247 -249 0
247 249 -4 0
-248 -15 0
-248 -249 0
248 249 15 0
-249 4 0
-249 -15 0
249 15 -4 0
-250 -251 0
-250 -252 0
250 252 251 0
-251 -254 0
-251 -276 0
251 276 254 0
-252 -259 0
-252 276 0
252 -276 259 0
-253 -27 0
-253 -257 0
253 257 27 0
-254 -255 0
-254 -256 0
254 256 255 0
-255 -257 0
-255 633 0
255 -633 257 0
-256 -24 0
-256 -257 0
256 257 24 0
-257 -24 0
-257 633 0
257 -633 24 0
-258 -27 0
-258 -262 0
258 262 27 0
-259 -260 0
-259 -261 0
259 261 260 0
-260 4 0
-260 -262 0
260 262 -4 0
-261 -24 0
-261 -262 0
261 262 24 0
-262 4 0
-262 -24 0
262 24 -4 0
-263 -264 0
-263 -265 0
263 265 264 0
-264 -267 0
-264 -276 0
264 276 267 0
-265 -272 0
-265 276 0
265 -276 272 0
-266 -36 0
-266 -270 0
266 270 36 0
-267 -268 0
-267 -269 0
267 269 268 0
-268 -270 0
-268 633 0
268 -633 270 0
-269 -33 0
-269 -270 0
269 270 33 0
-270 -33 0
-270 633 0
270 -633 33 0
-271 -36 0
-271 -275 0
271 275 36 0
-272 -273 0
-272 -274 0
272 274 273 0
-273 4 0
-273 -275 0
273 275 -4 0
-274 -33 0
-274 -275 0
274 275 33 0
-275 4 0
-275 -33 0
275 33 -4 0
-276 -277 0
-276 -278 0
276 278 277 0
-277 -282 0
-277 -335 0
277 335 282 0
-278 -287 0
-278 335 0
278 -335 287 0
-279 -280 0
-279 -281 0
279 281 280 0
-280 -283 0
-280 -335 0
280 335 283 0
-281 -288 0
-281 335 0
281 -335 288 0
-282 -286 0
-282 -295 0
282 295 286 0
-283 -284 0
-283 -285 0
283 285 284 0
-284 -286 0
-284 633 0
284 -633 286 0
-285 -286 0
-285 -292 0
285 292 286 0
-286 -292 0
-286 633 0
286 -633 292 0
-287 -291 0
-287 -295 0
287 295 291 0
-288 -289 0
-288 -290 0
288 290 289 0
-289 4 0
-289 -291 0
289 291 -4 0
-290 -291 0
-290 -292 0
290 292 291 0
-291 4 0
-291 -292 0
291 292 -4 0
-292 -293 0
-292 -294 0
292 294 293 0
-293 -295 0
-293 684 0
293 -684 295 0
-294 -295 0
-294 716 0
294 -716 295 0
-295 684 0
-295 716 0
295 -716 -684 0
-296 -297 0
-296 -298 0
296 298 297 0
-297 -300 0
-297 -335 0
297 335 300 0
-298 -305 0
-298 335 0
298 -335 305 0
-299 -50 0
-299 -303 0
299 303 50 0
-300 -301 0
-300 -302 0
300 302 301 0
-301 -303 0
-301 633 0
301 -633 303 0
-302 -47 0
-302 -303 0
302 303 47 0
-303 -47 0
-303 633 0
303 -633 47 0
-304 -50 0
-304 -308 0
304 308 50 0
-305 -306 0
-305 -307 0
305 307 306 0
-306 4 0
-306 -308 0
306 308 -4 0
-307 -47 0
-307 -308 0
307 308 47 0
-308 4 0
-308 -47 0
308 47 -4 0
-309 -310 0
-309 -311 0
309 311 310 0
-310 -313 0
-310 -335 0
310 335 313 0
-311 -318 0
-311 335 0
311 -335 318 0
-312 -59 0
-312 -316 0
312 316 59 0
-313 -314 0
-313 -315 0
313 315 314 0
-314 -316 0
-314 633 0
314 -633 316 0
-315 -56 0
-315 -316 0
315 316 56 0
-316 -56 0
-316 633 0
316 -633 56 0
-317 -59 0
-317 -321 0
317 321 59 0
-318 -319 0
-318 -320 0
318 320 319 0
-319 4 0
-319 -321 0
319 321 -4 0
-320 -56 0
-320 -321 0
320 321 56 0
-321 4 0
-321 -56 0
321 56 -4 0
-322 -323 0
-322 -324 0
322 324 323 0
-323 -326 0
-323 -335 0
323 335 326 0
-324 -331 0
-324 335 0
324 -335 331 0
-325 -68 0
-325 -329 0
325 329 68 0
-326 -327 0
-326 -328 0
326 328 327 0
-327 -329 0
-327 633 0
327 -633 329 0
-328 -65 0
-328 -329 0
328 329 65 0
-329 -65 0
-329 633 0
329 -633 65 0
-330 -68 0
-330 -334 0
330 334 68 0
-331 -332 0
-331 -333 0
331 333 332 0
-332 4 0
-332 -334 0
332 334 -4 0
-333 -65 0
-333 -334 0
333 334 65 0
-334 4 0
-334 -65 0
334 65 -4 0
-335 -336 0
-335 -337 0
335 337 336 0
-336 -341 0
-336 -394 0
336 394 341 0
-337 -346 0
-337 394 0
337 -394 346 0
-338 -339 0
-338 -340 0
338 340 339 0
-339 -342 0
-339 -394 0
339 394 342 0
-340 -347 0
-340 394 0
340 -394 347 0
-341 -345 0
-341 -354 0
341 354 345 0
-342 -343 0
-342 -344 0
342 344 343 0
-343 -345 0
-343 633 0
343 -633 345 0
-344 -345 0
-344 -351 0
344 351 345 0
-345 -351 0
-345 633 0
345 -633 351 0
-346 -350 0
-346 -354 0
346 354 350 0
-347 -348 0
-347 -349 0
347 349 348 0
-348 4 0
-348 -350 0
348 350 -4 0
-349 -350 0
-349 -351 0
349 351 350 0
-350 4 0
-350 -351 0
350 351 -4 0
-351 -352 0
-351 -353 0
351 353 352 0
-352 -354 0
-352 688 0
352 -688 354 0
-353 -354 0
-353 720 0
353 -720 354 0
-354 688 0
-354 720 0
354 -720 -688 0
-355 -356 0
-355 -357 0
355 357 356 0
-356 -359 0
-356 -394 0
356 394 359 0
-357 -364 0
-357 394 0
357 -394 364 0
-358 -82 0
-358 -362 0
358 362 82 0
-359 -360 0
-359 -361 0
359 361 360 0
-360 -362 0
-360 633 0
360 -633 362 0
-361 -79 0
-361 -362 0
361 362 79 0
-362 -79 0
-362 633 0
362 -633 79 0
-363 -82 0
-363 -367 0
363 367 82 0
-364 -365 0
-364 -366 0
364 366 365 0
-365 4 0
-365 -367 0
365 367 -4 0
-366 -79 0
-366 -367 0
366 367 79 0
-367 4 0
-367 -79 0
367 79 -4 0
-368 -369 0
-368 -370 0
368 370 369 0
-369 -372 0
-369 -394 0
369 394 372 0
-370 -377 0
-370 394 0
370 -394 377 0
-371 -91 0
-371 -375 0
371 375 91 0
-372 -373 0
-372 -374 0
372 374 373 0
-373 -375 0
-373 633 0
373 -633 375 0
-374 -88 0
-374 -375 0
374 375 88 0
-375 -88 0
-375 633 0
375 -633 88 0
-376 -91 0
-376 -380 0
376 380 91 0
-377 -378 0
-377 -379 0
377 379 378 0
-378 4 0
-378 -380 0
378 380 -4 0
-379 -88 0
-379 -380 0
379 380 88 0
-380 4 0
-380 -88 0
380 88 -4 0
-381 -382 0
-381 -383 0
381 383 382 0
-382 -385 0
-382 -394 0
382 394 385 0
-383 -390 0
-383 394 0
383 -394 390 0
-384 -100 0
-384 -388 0
384 388 100 0
-385 -386 0
-385 -387 0
385 387 386 0
-386 -388 0
-386 633 0
386 -633 388 0
-387 -97 0
-387 -388 0
387 388 97 0
-388 -97 0
-388 633 0
388 -633 97 0
-389 -100 0
-389 -393 0
389 393 100 0
-390 -391 0
-390 -392 0
390 392 391 0
-391 4 0
-391 -393 0
391 393 -4 0
-392 -97 0
-392 -393 0
392 393 97 0
-393 4 0
-393 -97 0
393 97 -4 0
-394 -395 0
-394 -396 0
394 396 395 0
-395 -400 0
-395 -453 0
395 453 400 0
-396 -405 0
-396 453 0
396 -453 405 0
-397 -398 0
-397 -399 0
397 399 398 0
-398 -401 0
-398 -453 0
398 453 401 0
-399 -406 0
-399 453 0
399 -453 406 0
-400 -404 0
-400 -413 0
400 413 404 0
-401 -402 0
-401 -403 0
401 403 402 0
-402 -404 0
-402 633 0
402 -633 404 0
-403 -404 0
-403 -410 0
403 410 404 0
-404 -410 0
-404 633 0
404 -633 410 0
-405 -409 0
-405 -413 0
405 413 409 0
-406 -407 0
-406 -408 0
406 408 407 0
-407 4 0
-407 -409 0
407 409 -4 0
-408 -409 0
-408 -410 0
408 410 409 0
-409 4 0
-409 -410 0
409 410 -4 0
-410 -411 0
-410 -412 0
410 412 411 0
-411 -413 0
-411 692 0
411 -692 413 0
-412 -413 0
-412 724 0
412 -724 413 0
-413 692 0
-413 724 0
413 -724 -692 0
-414 -415 0
-414 -416 0
414 416 415 0
-415 -418 0
-415 -453 0
415 453 418 0
-416 -423 0
-416 453 0
416 -453 423 0
-417 -114 0
-417 -421 0
417 421 114 0
-418 -419 0
-418 -420 0
418 420 419 0
-419 -421 0
-419 633 0
419 -633 421 0
-420 -111 0
-420 -421 0
420 421 111 0
-421 -111 0
-421 633 0
421 -633 111 0
-422 -114 0
-422 -426 0
422 426 114 0
-423 -424 0
-423 -425 0
423 425 424 0
-424 4 0
-424 -426 0
424 426 -4 0
-425 -111 0
-425 -426 0
425 426 111 0
-426 4 0
-426 -111 0
426 111 -4 0
-427 -428 0
-427 -429 0
427 429 428 0
-428 -431 0
-428 -453 0
428 453 431 0
-429 -436 0
-429 453 0
429 -453 436 0
-430 -123 0
-430 -434 0
430 434 123 0
-431 -432 0
-431 -433 0
431 433 432 0
-432 -434 0
-432 633 0
432 -633 434 0
-433 -120 0
-433 -434 0
433 434 120 0
-434 -120 0
-434 633 0
434 -633 120 0
-435 -123 0
-435 -439 0
435 439 123 0
-436 -437 0
-436 -438 0
436 438 437 0
-437 4 0
-437 -439 0
437 439 -4 0
-438 -120 0
-438 -439 0
438 439 120 0
-439 4 0
-439 -120 0
439 120 -4 0
-440 -441 0
-440 -442 0
440 442 441 0
-441 -444 0
-441 -453 0
441 453 444 0
-442 -449 0
-442 453 0
442 -453 449 0
-443 -132 0
-443 -447 0
443 447 132 0
-444 -445 0
-444 -446 0
444 446 445 0
-445 -447 0
-445 633 0
445 -633 447 0
-446 -129 0
-446 -447 0
446 447 129 0
-447 -129 0
-447 633 0
447 -633 129 0
-448 -132 0
-448 -452 0
448 452 132 0
-449 -450 0
-449 -451 0
449 451 450 0
-450 4 0
-450 -452 0
450 452 -4 0
-451 -129 0
-451 -452 0
451 452 129 0
-452 4 0
-452 -129 0
452 129 -4 0
-453 -454 0
-453 -455 0
453 455 454 0
-454 -459 0
-454 -512 0
454 512 459 0
-455 -464 0
-455 512 0
455 -512 464 0
-456 -457 0
-456 -458 0
456 458 457 0
-457 -460 0
-457 -512 0
457 512 460 0
-458 -465 0
-458 512 0
458 -512 465 0
-459 -463 0
-459 -472 0
459 472 463 0
-460 -461 0
-460 -462 0
460 462 461 0
-461 -463 0
-461 633 0
461 -633 463 0
-462 -463 0
-462 -469 0
462 469 463 0
-463 -469 0
-463 633 0
463 -633 469 0
-464 -468 0
-464 -472 0
464 472 468 0
-465 -466 0
-465 -467 0
465 467 466 0
-466 4 0
-466 -468 0
466 468 -4 0
-467 -468 0
-467 -469 0
467 469 468 0
-468 4 0
-468 -469 0
468 469 -4 0
-469 -470 0
-469 -471 0
469 471 470 0
-470 -472 0
-470 696 0
470 -696 472 0
-471 -472 0
-471 728 0
471 -728 472 0
-472 696 0
-472 728 0
472 -728 -696 0
-473 -474 0
-473 -475 0
473 475 474 0
-474 -477 0
-474 -512 0
474 512 477 0
-475 -482 0
-475 512 0
475 -512 482 0
-476 -146 0
-476 -480 0
476 480 146 0
-477 -478 0
-477 -479 0
477 479 478 0
-478 -480 0
-478 633 0
478 -633 480 0
-479 -143 0
-479 -480 0
479 480 143 0
-480 -143 0
-480 633 0
480 -633 143 0
-481 -146 0
-481 -485 0
481 485 146 0
-482 -483 0
-482 -484 0
482 484 483 0
-483 4 0
-483 -485 0
483 485 -4 0
-484 -143 0
-484 -485 0
484 485 143 0
-485 4 0
-485 -143 0
485 143 -4 0
-486 -487 0
-486 -488 0
486 488 487 0
-487 -490 0
-487 -512 0
487 512 490 0
-488 -495 0
-488 512 0
488 -512 495 0
-489 -155 0
-489 -493 0
489 493 155 0
-490 -491 0
-490 -492 0
490 492 491 0
-491 -493 0
-491 633 0
491 -633 493 0
-492 -152 0
-492 -493 0
492 493 152 0
-493 -152 0
-493 633 0
493 -633 152 0
-494 -155 0
-494 -498 0
494 498 155 0
-495 -496 0
-495 -497 0
495 497 496 0
-496 4 0
-496 -498 0
496 498 -4 0
-497 -152 0
-497 -498 0
497 498 152 0
-498 4 0
-498 -152 0
498 152 -4 0
-499 -500 0
-499 -501 0
499 501 500 0
-500 -503 0
-500 -512 0
500 512 503 0
-501 -508 0
-501 512 0
501 -512 508 0
-502 -164 0
-502 -506 0
502 506 164 0
-503 -504 0
-503 -505 0
503 505 504 0
-504 -506 0
-504 633 0
504 -633 506 0
-505 -161 0
-505 -506 0
505 506 161 0
-506 -161 0
-506 633 0
506 -633 161 0
-507 -164 0
-507 -511 0
507 511 164 0
-508 -509 0
-508 -510 0
508 510 509 0
-509 4 0
-509 -511 0
509 511 -4 0
-510 -161 0
-510 -511 0
510 511 161 0
-511 4 0
-511 -161 0
511 161 -4 0
-512 -513 0
-512 -514 0
512 514 513 0
-513 -518 0
-513 -571 0
513 571 518 0
-514 -523 0
-514 571 0
514 -571 523 0
-515 -516 0
-515 -517 0
515 517 516 0
-516 -519 0
-516 -571 0
516 571 519 0
-517 -524 0
-517 571 0
517 -571 524 0
-518 -522 0
-518 -531 0
518 531 522 0
-519 -520 0
-519 -521 0
519 521 520 0
-520 -522 0
-520 633 0
520 -633 522 0
-521 -522 0
-521 -528 0
521 528 522 0
-522 -528 0
-522 633 0
522 -633 528 0
-523 -527 0
-523 -531 0
523 531 527 0
-524 -525 0
-524 -526 0
524 526 525 0
-525 4 0
-525 -527 0
525 527 -4 0
-526 -527 0
-526 -528 0
526 528 527 0
-527 4 0
-527 -528 0
527 528 -4 0
-528 -529 0
-528 -530 0
528 530 529 0
-529 -531 0
-529 700 0
529 -700 531 0
-530 -531 0
-530 732 0
530 -732 531 0
-531 700 0
-531 732 0
531 -732 -700 0
-532 -533 0
-532 -534 0
532 534 533 0
-533 -536 0
-533 -571 0
533 571 536 0
-534 -541 0
-534 571 0
534 -571 541 0
-535 -178 0
-535 -539 0
535 539 178 0
-536 -537 0
-536 -538 0
536 538 537 0
-537 -539 0
-537 633 0
537 -633 539 0
-538 -175 0
-538 -539 0
538 539 175 0
-539 -175 0
-539 633 0
539 -633 175 0
-540 -178 0
-540 -544 0
540 544 178 0
-541 -542 0
-541 -543 0
541 543 542 0
-542 4 0
-542 -544 0
542 544 -4 0
-543 -175 0
-543 -544 0
543 544 175 0
-544 4 0
-544 -175 0
544 175 -4 0
-545 -546 0
-545 -547 0
545 547 546 0
-546 -549 0
-546 -571 0
546 571 549 0
-547 -554 0
-547 571 0
547 -571 554 0
-548 -187 0
-548 -552 0
548 552 187 0
-549 -550 0
-549 -551 0
549 551 550 0
-550 -552 0
-550 633 0
550 -633 552 0
-551 -184 0
-551 -552 0
551 552 184 0
-552 -184 0
-552 633 0
552 -633 184 0
-553 -187 0
-553 -557 0
553 557 187 0
-554 -555 0
-554 -556 0
554 556 555 0
-555 4 0
-555 -557 0
555 557 -4 0
-556 -184 0
-556 -557 0
556 557 184 0
-557 4 0
-557 -184 0
557 184 -4 0
-558 -559 0
-558 -560 0
558 560 559 0
-559 -562 0
-559 -571 0
559 571 562 0
-560 -567 0
-560 571 0
560 -571 567 0
-561 -196 0
-561 -565 0
561 565 196 0
-562 -563 0
-562 -564 0
562 564 563 0
-563 -565 0
-563 633 0
563 -633 565 0
-564 -193 0
-564 -565 0
564 565 193 0
-565 -193 0
-565 633 0
565 -633 193 0
-566 -196 0
-566 -570 0
566 570 196 0
-567 -568 0
-567 -569 0
567 569 568 0
-568 4 0
-568 -570 0
568 570 -4 0
-569 -193 0
-569 -570 0
569 570 193 0
-570 4 0
-570 -193 0
570 193 -4 0
-571 -572 0
-571 -573 0
571 573 572 0
-572 -577 0
-572 -643 0
572 643 577 0
-573 -582 0
-573 643 0
573 -643 582 0
-574 -575 0
-574 -576 0
574 576 575 0
-575 -578 0
-575 -643 0
575 643 578 0
-576 -583 0
-576 643 0
576 -643 583 0
-577 -581 0
-577 -590 0
577 590 581 0
-578 -579 0
-578 -580 0
578 580 579 0
-579 -581 0
-579 -594 0
579 594 581 0
-580 -581 0
-580 -587 0
580 587 581 0
-581 -587 0
-581 -594 0
581 594 587 0
-582 -586 0
-582 -590 0
582 590 586 0
-583 -584 0
-583 -585 0
583 585 584 0
-584 -586 0
-584 -599 0
584 599 586 0
-585 -586 0
-585 -587 0
585 587 586 0
-586 -587 0
-586 -599 0
586 599 587 0
-587 -588 0
-587 -589 0
587 589 588 0
-588 -590 0
-588 704 0
588 -704 590 0
-589 -590 0
-589 736 0
589 -736 590 0
-590 704 0
-590 736 0
590 -736 -704 0
-591 -592 0
-591 -593 0
591 593 592 0
-592 -595 0
-592 -643 0
592 643 595 0
-593 -600 0
-593 643 0
593 -643 600 0
-594 -598 0
-594 -607 0
594 607 598 0
-595 -596 0
-595 -597 0
595 597 596 0
-596 -598 0
-596 -611 0
596 611 598 0
-597 -598 0
-597 -604 0
597 604 598 0
-598 -604 0
-598 -611 0
598 611 604 0
-599 -603 0
-599 -607 0
599 607 603 0
-600 -601 0
-600 -602 0
600 602 601 0
-601 -603 0
-601 -616 0
601 616 603 0
-602 -603 0
-602 -604 0
602 604 603 0
-603 -604 0
-603 -616 0
603 616 604 0
-604 -605 0
-604 -606 0
604 606 605 0
-605 -607 0
-605 705 0
605 -705 607 0
-606 -607 0
-606 737 0
606 -737 607 0
-607 705 0
-607 737 0
607 -737 -705 0
-608 -609 0
-608 -610 0
608 610 609 0
-609 -612 0
-609 -643 0
609 643 612 0
-610 -617 0
-610 643 0
610 -643 617 0
-611 -615 0
-611 -624 0
611 624 615 0
-612 -613 0
-612 -614 0
612 614 613 0
-613 -615 0
-613 -628 0
613 628 615 0
-614 -615 0
-614 -621 0
614 621 615 0
-615 -621 0
-615 -628 0
615 628 621 0
-616 -620 0
-616 -624 0
616 624 620 0
-617 -618 0
-617 -619 0
617 619 618 0
-618 -620 0
-618 -634 0
618 634 620 0
-619 -620 0
-619 -621 0
619 621 620 0
-620 -621 0
-620 -634 0
620 634 621 0
-621 -622 0
-621 -623 0
621 623 622 0
-622 -624 0
-622 706 0
622 -706 624 0
-623 -624 0
-623 738 0
623 -738 624 0
-624 706 0
-624 738 0
624 -738 -706 0
-625 -626 0
-625 -627 0
625 627 626 0
-626 -629 0
-626 -643 0
626 643 629 0
-627 -635 0
-627 643 0
627 -643 635 0
-628 -632 0
-628 -642 0
628 642 632 0
-629 -630 0
-629 -631 0
629 631 630 0
-630 -632 0
-630 633 0
630 -633 632 0
-631 -632 0
-631 -639 0
631 639 632 0
-632 633 0
-632 -639 0
632 639 -633 0
633 0
-634 -638 0
-634 -642 0
634 642 638 0
-635 -636 0
-635 -637 0
635 637 636 0
-636 4 0
-636 -638 0
636 638 -4 0
-637 -638 0
-637 -639 0
637 639 638 0
-638 4 0
-638 -639 0
638 639 -4 0
-639 -640 0
-639 -641 0
639 641 640 0
-640 -642 0
-640 707 0
640 -707 642 0
-641 -642 0
-641 739 0
641 -739 642 0
-642 707 0
-642 739 0
642 -739 -707 0
-643 -647 0
-643 -651 0
643 651 647 0
-644 -645 0
-644 -646 0
644 646 645 0
-645 -647 0
-645 -652 0
645 652 647 0
-646 -647 0
-646 -648 0
646 648 647 0
-647 -648 0
-647 -652 0
647 652 648 0
-648 -649 0
-648 -650 0
648 650 649 0
-649 -651 0
-649 710 0
649 -710 651 0
-650 -651 0
-650 740 0
650 -740 651 0
-651 708 0
-651 740 0
651 -740 -708 0
-652 -656 0
-652 -660 0
652 660 656 0
-653 -654 0
-653 -655 0
653 655 654 0
-654 -656 0
-654 -661 0
654 661 656 0
-655 -656 0
-655 -657 0
655 657 656 0
-656 -657 0
-656 -661 0
656 661 657 0
-657 -658 0
-657 -659 0
657 659 658 0
-658 -660 0
-658 709 0
658 -709 660 0
-659 -660 0
-659 741 0
659 -741 660 0
-660 709 0
-660 741 0
660 -741 -709 0
-661 -665 0
-661 -669 0
661 669 665 0
-662 -663 0
-662 -664 0
662 664 663 0
-663 -665 0
-663 -670 0
663 670 665 0
-664 -665 0
-664 -666 0
664 666 665 0
-665 -666 0
-665 -670 0
665 670 666 0
-666 -667 0
-666 -668 0
666 668 667 0
-667 -669 0
-667 710 0
667 -710 669 0
-668 -669 0
-668 742 0
668 -742 669 0
-669 710 0
-669 742 0
669 -742 -710 0
-670 -674 0
-670 -678 0
670 678 674 0
-671 -672 0
-671 -673 0
671 673 672 0
-672 -674 0
-672 679 0
672 -679 674 0
-673 -674 0
-673 -675 0
673 675 674 0
-674 -675 0
-674 679 0
674 -679 675 0
-675 -676 0
-675 -677 0
675 677 676 0
-676 -678 0
-676 711 0
676 -711 678 0
-677 -678 0
-677 743 0
677 -743 678 0
-678 711 0
-678 743 0
678 -743 -711 0